<number of tasks>
45

<cycle time>
69

<task times>
1 9
2 9
3 10
4 10
5 17
6 17
7 13
8 13
9 20
10 20
11 10
12 11
13 6
14 22
15 11
16 19
17 12
18 3
19 7
20 4
21 55
22 14
23 27
24 29
25 26
26 6
27 5
28 24
29 4
30 5
31 7
32 4
33 15
34 3
35 7
36 9
37 4
38 7
39 5
40 4
41 21
42 12
43 6
44 5
45 5

<precedence relations>
1,3
1,7
2,4
2,8
3,5
4,6
5,9
6,10
7,9
7,14
8,10
8,14
9,41
10,41
11,13
12,13
12,37
13,14
13,15
14,17
14,25
14,29
14,30
14,31
14,32
15,16
15,18
15,23
15,24
16,19
17,26
17,27
18,19
19,20
19,33
20,21
21,22
22,28
23,33
24,33
25,26
26,38
27,28
27,33
28,38
29,41
30,41
31,41
32,41
33,34
33,35
33,36
34,38
35,40
36,38
37,43
38,40
39,41
40,41
41,42
42,44
42,45

<setup times forward>
1,3:3
1,4:3
1,6:2
1,8:3
1,10:1
1,16:2
1,18:3
1,19:1
1,20:1
1,21:2
1,23:1
1,24:1
1,37:2
1,39:1
2,3:3
2,4:3
2,5:2
2,8:3
2,9:1
2,16:2
2,18:3
2,19:1
2,20:1
2,21:2
2,23:1
2,24:1
2,37:2
2,39:1
3,2:3
3,5:5
3,6:5
3,7:3
3,10:2
3,11:3
3,12:3
3,13:3
3,15:3
3,16:5
3,17:5
3,19:2
3,20:2
3,21:5
3,22:3
3,23:2
3,24:2
3,25:2
3,26:6
3,27:5
3,28:3
3,29:5
3,30:5
3,33:3
3,34:3
3,35:3
3,36:6
3,37:5
3,38:6
3,39:2
3,40:6
3,43:3
4,1:3
4,5:5
4,6:5
4,7:3
4,9:2
4,11:3
4,12:3
4,13:3
4,15:3
4,16:5
4,17:5
4,19:2
4,20:2
4,21:5
4,22:3
4,23:2
4,24:2
4,25:2
4,26:6
4,27:5
4,28:3
4,29:5
4,30:5
4,33:3
4,34:3
4,35:3
4,36:6
4,37:5
4,38:6
4,39:2
4,40:6
4,43:3
5,2:2
5,4:5
5,7:2
5,8:5
5,9:3
5,10:3
5,11:2
5,12:2
5,13:2
5,14:5
5,15:2
5,18:5
5,19:3
5,20:3
5,22:2
5,23:3
5,24:3
5,25:3
5,26:1
5,28:2
5,31:5
5,32:5
5,33:2
5,34:2
5,35:2
5,36:1
5,38:1
5,39:3
5,40:1
5,43:2
6,1:2
6,3:5
6,7:2
6,8:5
6,9:3
6,10:3
6,11:2
6,12:2
6,13:2
6,14:5
6,15:2
6,18:5
6,19:3
6,20:3
6,22:2
6,23:3
6,24:3
6,25:3
6,26:1
6,28:2
6,31:5
6,32:5
6,33:2
6,34:2
6,35:2
6,36:1
6,38:1
6,39:3
6,40:1
6,43:2
7,3:3
7,4:3
7,5:2
7,6:2
7,8:3
7,9:1
7,10:1
7,14:3
7,16:2
7,18:3
7,19:1
7,20:1
7,21:2
7,23:1
7,24:1
7,37:2
7,39:1
8,1:3
8,5:5
8,6:5
8,7:3
8,9:2
8,10:2
8,11:3
8,12:3
8,13:3
8,15:3
8,16:5
8,19:2
8,20:2
8,21:5
8,22:3
8,23:2
8,24:2
8,37:5
8,39:2
8,43:3
9,2:1
9,4:2
9,6:3
9,8:2
9,11:1
9,12:1
9,13:1
9,14:2
9,15:1
9,16:3
9,17:3
9,18:2
9,21:3
9,22:1
9,26:4
9,27:3
9,28:1
9,29:3
9,30:3
9,31:2
9,32:2
9,33:1
9,34:1
9,35:1
9,36:4
9,37:3
9,38:4
9,40:4
9,41:4
9,43:1
10,1:1
10,3:2
10,5:3
10,7:1
10,11:1
10,12:1
10,13:1
10,14:2
10,15:1
10,16:3
10,17:3
10,18:2
10,21:3
10,22:1
10,26:4
10,27:3
10,28:1
10,29:3
10,30:3
10,31:2
10,32:2
10,33:1
10,34:1
10,35:1
10,36:4
10,37:3
10,38:4
10,40:4
10,41:4
10,43:1
11,3:3
11,4:3
11,5:2
11,6:2
11,8:3
11,9:1
11,10:1
11,37:2
11,39:1
12,3:3
12,4:3
12,5:2
12,6:2
12,8:3
12,9:1
12,10:1
12,37:2
12,39:1
13,3:3
13,4:3
13,5:2
13,6:2
13,8:3
13,9:1
13,10:1
13,14:3
13,37:2
13,39:1
14,5:5
14,6:5
14,9:2
14,10:2
14,15:3
14,16:5
14,17:5
14,19:2
14,20:2
14,21:5
14,22:3
14,23:2
14,24:2
14,25:2
14,29:5
14,30:5
14,37:5
14,39:2
14,43:3
15,3:3
15,4:3
15,5:2
15,6:2
15,8:3
15,9:1
15,10:1
15,14:3
15,16:2
15,17:2
15,18:3
15,23:1
15,24:1
15,25:1
15,26:3
15,27:2
15,29:2
15,30:2
15,31:3
15,32:3
15,37:2
15,39:1
16,1:2
16,2:2
16,3:5
16,4:5
16,7:2
16,8:5
16,9:3
16,10:3
16,14:5
16,18:5
16,19:3
16,23:3
16,24:3
16,25:3
16,26:1
16,31:5
16,32:5
16,39:3
16,43:2
17,3:5
17,4:5
17,9:3
17,10:3
17,15:2
17,18:5
17,19:3
17,20:3
17,22:2
17,23:3
17,24:3
17,25:3
17,26:1
17,31:5
17,32:5
17,39:3
17,43:2
18,1:3
18,2:3
18,5:5
18,6:5
18,7:3
18,9:2
18,10:2
18,16:5
18,17:5
18,19:2
18,23:2
18,24:2
18,25:2
18,26:6
18,27:5
18,29:5
18,30:5
18,37:5
18,39:2
18,43:3
19,1:1
19,2:1
19,3:2
19,4:2
19,5:3
19,6:3
19,7:1
19,8:2
19,14:2
19,17:3
19,26:4
19,27:3
19,29:3
19,30:3
19,31:2
19,32:2
19,33:1
19,37:3
19,43:1
20,1:1
20,2:1
20,3:2
20,4:2
20,5:3
20,6:3
20,7:1
20,8:2
20,14:2
20,17:3
20,21:3
20,26:4
20,27:3
20,29:3
20,30:3
20,31:2
20,32:2
20,33:1
20,34:1
20,35:1
20,36:4
20,37:3
20,43:1
21,1:2
21,2:2
21,3:5
21,4:5
21,7:2
21,8:5
21,9:3
21,10:3
21,14:5
21,22:2
21,23:3
21,24:3
21,25:3
21,26:1
21,31:5
21,32:5
21,33:2
21,34:2
21,35:2
21,36:1
21,39:3
21,43:2
22,3:3
22,4:3
22,5:2
22,6:2
22,8:3
22,9:1
22,10:1
22,14:3
22,17:2
22,23:1
22,24:1
22,25:1
22,26:3
22,27:2
22,29:2
22,30:2
22,31:3
22,32:3
22,36:3
22,37:2
22,39:1
23,1:1
23,2:1
23,3:2
23,4:2
23,5:3
23,6:3
23,7:1
23,8:2
23,14:2
23,16:3
23,17:3
23,18:2
23,21:3
23,22:1
23,26:4
23,27:3
23,28:1
23,29:3
23,30:3
23,31:2
23,32:2
23,33:1
23,37:3
23,43:1
24,1:1
24,2:1
24,3:2
24,4:2
24,5:3
24,6:3
24,7:1
24,8:2
24,14:2
24,16:3
24,17:3
24,18:2
24,21:3
24,22:1
24,26:4
24,27:3
24,28:1
24,29:3
24,30:3
24,31:2
24,32:2
24,33:1
24,37:3
24,43:1
25,3:2
25,4:2
25,5:3
25,6:3
25,15:1
25,16:3
25,17:3
25,18:2
25,21:3
25,22:1
25,26:4
25,27:3
25,28:1
25,29:3
25,30:3
25,31:2
25,32:2
25,33:1
25,34:1
25,35:1
25,36:4
25,37:3
25,43:1
26,3:6
26,4:6
26,5:1
26,6:1
26,9:4
26,10:4
26,15:3
26,16:1
26,18:6
26,19:4
26,20:4
26,21:1
26,22:3
26,23:4
26,24:4
26,27:1
26,28:3
26,29:1
26,30:1
26,31:6
26,32:6
26,33:3
26,34:3
26,35:3
26,37:1
26,39:4
26,43:3
27,3:5
27,4:5
27,9:3
27,10:3
27,15:2
27,18:5
27,19:3
27,20:3
27,22:2
27,23:3
27,24:3
27,25:3
27,26:1
27,28:2
27,31:5
27,32:5
27,33:2
27,39:3
27,43:2
28,3:3
28,4:3
28,5:2
28,6:2
28,9:1
28,10:1
28,23:1
28,24:1
28,25:1
28,26:3
28,29:2
28,30:2
28,31:3
28,32:3
28,36:3
28,37:2
28,38:3
28,39:1
29,3:5
29,4:5
29,9:3
29,10:3
29,15:2
29,18:5
29,19:3
29,20:3
29,22:2
29,23:3
29,24:3
29,25:3
29,26:1
29,28:2
29,31:5
29,32:5
29,33:2
29,34:2
29,35:2
29,36:1
29,38:1
29,39:3
29,40:1
29,41:1
29,43:2
30,3:5
30,4:5
30,9:3
30,10:3
30,15:2
30,18:5
30,19:3
30,20:3
30,22:2
30,23:3
30,24:3
30,25:3
30,26:1
30,28:2
30,31:5
30,32:5
30,33:2
30,34:2
30,35:2
30,36:1
30,38:1
30,39:3
30,40:1
30,41:1
30,43:2
31,5:5
31,6:5
31,9:2
31,10:2
31,15:3
31,16:5
31,17:5
31,19:2
31,20:2
31,21:5
31,22:3
31,23:2
31,24:2
31,25:2
31,26:6
31,27:5
31,28:3
31,29:5
31,30:5
31,33:3
31,34:3
31,35:3
31,36:6
31,37:5
31,38:6
31,39:2
31,40:6
31,41:6
31,43:3
32,5:5
32,6:5
32,9:2
32,10:2
32,15:3
32,16:5
32,17:5
32,19:2
32,20:2
32,21:5
32,22:3
32,23:2
32,24:2
32,25:2
32,26:6
32,27:5
32,28:3
32,29:5
32,30:5
32,33:3
32,34:3
32,35:3
32,36:6
32,37:5
32,38:6
32,39:2
32,40:6
32,41:6
32,43:3
33,3:3
33,4:3
33,5:2
33,6:2
33,9:1
33,10:1
33,20:1
33,21:2
33,25:1
33,26:3
33,29:2
33,30:2
33,31:3
33,32:3
33,36:3
33,37:2
33,39:1
34,3:3
34,4:3
34,5:2
34,6:2
34,9:1
34,10:1
34,20:1
34,21:2
34,25:1
34,26:3
34,29:2
34,30:2
34,31:3
34,32:3
34,36:3
34,37:2
34,38:3
34,39:1
35,3:3
35,4:3
35,5:2
35,6:2
35,9:1
35,10:1
35,20:1
35,21:2
35,25:1
35,26:3
35,29:2
35,30:2
35,31:3
35,32:3
35,36:3
35,37:2
35,38:3
35,39:1
35,40:3
36,3:6
36,4:6
36,5:1
36,6:1
36,9:4
36,10:4
36,20:4
36,21:1
36,22:3
36,25:4
36,28:3
36,29:1
36,30:1
36,31:6
36,32:6
36,34:3
36,35:3
36,37:1
36,39:4
36,43:3
37,1:2
37,2:2
37,3:5
37,4:5
37,7:2
37,8:5
37,9:3
37,10:3
37,11:2
37,13:2
37,14:5
37,15:2
37,18:5
37,19:3
37,20:3
37,22:2
37,23:3
37,24:3
37,25:3
37,26:1
37,28:2
37,31:5
37,32:5
37,33:2
37,34:2
37,35:2
37,36:1
37,38:1
37,39:3
37,40:1
37,41:1
37,42:1
37,43:2
37,44:1
37,45:1
38,3:6
38,4:6
38,5:1
38,6:1
38,9:4
38,10:4
38,29:1
38,30:1
38,31:6
38,32:6
38,35:3
38,37:1
38,39:4
38,43:3
39,1:1
39,2:1
39,3:2
39,4:2
39,5:3
39,6:3
39,7:1
39,8:2
39,11:1
39,12:1
39,13:1
39,14:2
39,15:1
39,16:3
39,17:3
39,18:2
39,21:3
39,22:1
39,26:4
39,27:3
39,28:1
39,29:3
39,30:3
39,31:2
39,32:2
39,33:1
39,34:1
39,35:1
39,36:4
39,37:3
39,38:4
39,40:4
39,41:4
39,43:1
40,3:6
40,4:6
40,5:1
40,6:1
40,9:4
40,10:4
40,29:1
40,30:1
40,31:6
40,32:6
40,37:1
40,39:4
40,43:3
41,37:1
41,43:3
42,37:1
42,43:3
43,3:3
43,4:3
43,5:2
43,6:2
43,8:3
43,9:1
43,10:1
43,14:3
43,16:2
43,17:2
43,18:3
43,19:1
43,20:1
43,21:2
43,23:1
43,24:1
43,25:1
43,26:3
43,27:2
43,29:2
43,30:2
43,31:3
43,32:3
43,36:3
43,38:3
43,39:1
43,40:3
43,41:3
43,42:3
43,44:3
43,45:3
44,37:1
44,43:3
45,37:1
45,43:3

<setup times backward>
1,6:2
1,16:2
1,21:2
1,37:2
2,5:2
2,16:2
2,21:2
2,37:2
3,1:3
3,2:3
3,6:5
3,7:3
3,10:2
3,11:3
3,12:3
3,13:3
3,15:3
3,16:5
3,17:5
3,19:2
3,20:2
3,21:5
3,22:3
3,23:2
3,24:2
3,25:2
3,26:6
3,27:5
3,28:3
3,29:5
3,30:5
3,33:3
3,34:3
3,35:3
3,36:6
3,37:5
3,38:6
3,39:2
3,40:6
3,43:3
4,1:3
4,2:3
4,5:5
4,7:3
4,9:2
4,11:3
4,12:3
4,13:3
4,15:3
4,16:5
4,17:5
4,19:2
4,20:2
4,21:5
4,22:3
4,23:2
4,24:2
4,25:2
4,26:6
4,27:5
4,28:3
4,29:5
4,30:5
4,33:3
4,34:3
4,35:3
4,36:6
4,37:5
4,38:6
4,39:2
4,40:6
4,43:3
5,26:1
5,36:1
5,38:1
5,40:1
6,26:1
6,36:1
6,38:1
6,40:1
7,5:2
7,6:2
7,16:2
7,21:2
7,37:2
8,1:3
8,2:3
8,5:5
8,6:5
8,7:3
8,9:2
8,11:3
8,12:3
8,13:3
8,15:3
8,16:5
8,19:2
8,20:2
8,21:5
8,22:3
8,23:2
8,24:2
8,37:5
8,39:2
8,43:3
9,1:1
9,2:1
9,5:3
9,6:3
9,7:1
9,11:1
9,12:1
9,13:1
9,15:1
9,16:3
9,17:3
9,21:3
9,22:1
9,26:4
9,27:3
9,28:1
9,29:3
9,30:3
9,33:1
9,34:1
9,35:1
9,36:4
9,37:3
9,38:4
9,40:4
9,43:1
10,1:1
10,2:1
10,5:3
10,6:3
10,7:1
10,11:1
10,12:1
10,13:1
10,15:1
10,16:3
10,17:3
10,21:3
10,22:1
10,26:4
10,27:3
10,28:1
10,29:3
10,30:3
10,33:1
10,34:1
10,35:1
10,36:4
10,37:3
10,38:4
10,40:4
10,43:1
11,5:2
11,6:2
11,37:2
12,5:2
12,6:2
13,5:2
13,6:2
13,37:2
14,1:3
14,2:3
14,5:5
14,6:5
14,7:3
14,9:2
14,10:2
14,11:3
14,12:3
14,13:3
14,15:3
14,16:5
14,19:2
14,20:2
14,21:5
14,22:3
14,23:2
14,24:2
14,37:5
14,39:2
14,43:3
15,5:2
15,6:2
15,17:2
15,26:3
15,27:2
15,29:2
15,30:2
15,37:2
16,26:1
18,1:3
18,2:3
18,5:5
18,6:5
18,7:3
18,9:2
18,10:2
18,11:3
18,12:3
18,13:3
18,15:3
18,16:5
18,17:5
18,23:2
18,24:2
18,25:2
18,26:6
18,27:5
18,29:5
18,30:5
18,37:5
18,39:2
18,43:3
19,1:1
19,2:1
19,5:3
19,6:3
19,7:1
19,11:1
19,12:1
19,13:1
19,15:1
19,16:3
19,17:3
19,26:4
19,27:3
19,29:3
19,30:3
19,37:3
19,43:1
20,1:1
20,2:1
20,5:3
20,6:3
20,7:1
20,11:1
20,12:1
20,13:1
20,15:1
20,16:3
20,17:3
20,26:4
20,27:3
20,29:3
20,30:3
20,33:1
20,34:1
20,35:1
20,36:4
20,37:3
20,43:1
21,26:1
21,36:1
22,5:2
22,6:2
22,16:2
22,17:2
22,21:2
22,26:3
22,27:2
22,29:2
22,30:2
22,36:3
22,37:2
23,1:1
23,2:1
23,5:3
23,6:3
23,7:1
23,11:1
23,12:1
23,13:1
23,15:1
23,16:3
23,17:3
23,21:3
23,22:1
23,26:4
23,27:3
23,28:1
23,29:3
23,30:3
23,37:3
23,43:1
24,1:1
24,2:1
24,5:3
24,6:3
24,7:1
24,11:1
24,12:1
24,13:1
24,15:1
24,16:3
24,17:3
24,21:3
24,22:1
24,26:4
24,27:3
24,28:1
24,29:3
24,30:3
24,37:3
24,43:1
25,1:1
25,2:1
25,5:3
25,6:3
25,7:1
25,11:1
25,12:1
25,13:1
25,15:1
25,16:3
25,17:3
25,21:3
25,22:1
25,27:3
25,28:1
25,29:3
25,30:3
25,33:1
25,34:1
25,35:1
25,36:4
25,37:3
25,43:1
27,26:1
28,5:2
28,6:2
28,16:2
28,17:2
28,21:2
28,26:3
28,27:2
28,29:2
28,30:2
28,36:3
28,37:2
29,26:1
29,36:1
29,38:1
29,40:1
30,26:1
30,36:1
30,38:1
30,40:1
31,1:3
31,2:3
31,5:5
31,6:5
31,7:3
31,9:2
31,10:2
31,11:3
31,12:3
31,13:3
31,15:3
31,16:5
31,17:5
31,19:2
31,20:2
31,21:5
31,22:3
31,23:2
31,24:2
31,25:2
31,26:6
31,27:5
31,28:3
31,29:5
31,30:5
31,33:3
31,34:3
31,35:3
31,36:6
31,37:5
31,38:6
31,39:2
31,40:6
31,43:3
32,1:3
32,2:3
32,5:5
32,6:5
32,7:3
32,9:2
32,10:2
32,11:3
32,12:3
32,13:3
32,15:3
32,16:5
32,17:5
32,19:2
32,20:2
32,21:5
32,22:3
32,23:2
32,24:2
32,25:2
32,26:6
32,27:5
32,28:3
32,29:5
32,30:5
32,33:3
32,34:3
32,35:3
32,36:6
32,37:5
32,38:6
32,39:2
32,40:6
32,43:3
33,5:2
33,6:2
33,16:2
33,17:2
33,21:2
33,26:3
33,27:2
33,29:2
33,30:2
33,37:2
34,5:2
34,6:2
34,16:2
34,17:2
34,21:2
34,26:3
34,27:2
34,29:2
34,30:2
34,36:3
34,37:2
35,5:2
35,6:2
35,16:2
35,17:2
35,21:2
35,26:3
35,27:2
35,29:2
35,30:2
35,36:3
35,37:2
35,38:3
37,26:1
37,36:1
37,38:1
37,40:1
37,41:1
37,42:1
37,44:1
37,45:1
39,1:1
39,2:1
39,5:3
39,6:3
39,7:1
39,11:1
39,12:1
39,13:1
39,15:1
39,16:3
39,17:3
39,21:3
39,22:1
39,26:4
39,27:3
39,28:1
39,29:3
39,30:3
39,33:1
39,34:1
39,35:1
39,36:4
39,37:3
39,38:4
39,40:4
39,43:1
43,5:2
43,6:2
43,16:2
43,17:2
43,21:2
43,26:3
43,27:2
43,29:2
43,30:2
43,36:3
43,37:2
43,38:3
43,40:3
43,41:3
43,42:3
43,44:3
43,45:3

<end>

<optimal SALBP-1 value>
8


<rand seed>
467321153

